
Gurobi 10.0.1 (linux64) logging started Tue Sep 12 19:39:30 2023

Set parameter LogFile to value "./log/tai12b.log"
Set parameter TimeLimit to value 180
Gurobi Optimizer version 10.0.1 build v10.0.1rc0 (linux64)

CPU model: 12th Gen Intel(R) Core(TM) i5-12600KF, instruction set [SSE2|AVX|AVX2]
Thread count: 8 physical cores, 16 logical processors, using up to 16 threads

Optimize a model with 24 rows, 144 columns and 288 nonzeros
Model fingerprint: 0xf0793692
Model has 7040 quadratic objective terms
Variable types: 0 continuous, 144 integer (144 binary)
Coefficient statistics:
  Matrix range     [1e+00, 1e+00]
  Objective range  [0e+00, 0e+00]
  QObjective range [2e+00, 6e+07]
  Bounds range     [1e+00, 1e+00]
  RHS range        [1e+00, 1e+00]
Found heuristic solution: objective 9.891893e+07
Presolve time: 0.05s
Presolved: 24 rows, 144 columns, 288 nonzeros
Presolved model has 7184 quadratic objective terms
Variable types: 0 continuous, 144 integer (144 binary)

Root relaxation: objective -6.551762e+08, 163 iterations, 0.00 seconds (0.01 work units)

    Nodes    |    Current Node    |     Objective Bounds      |     Work
 Expl Unexpl |  Obj  Depth IntInf | Incumbent    BestBd   Gap | It/Node Time

H    0     0                    6.420501e+07    0.00000   100%     -    0s
     0     0    0.00000    0  134 6.4205e+07    0.00000   100%     -    0s
H    0     0                    5.915544e+07    0.00000   100%     -    0s
     0     0    0.00000    0  134 5.9155e+07    0.00000   100%     -    0s
H    0     0                    4.992968e+07    0.00000   100%     -    0s
H    0     0                    4.990065e+07    0.00000   100%     -    0s
     0     2    0.00000    0  134 4.9901e+07    0.00000   100%     -    0s
H   32    40                    4.777209e+07    0.00000   100%   6.5    0s
H   64    80                    4.629258e+07    0.00000   100%   4.7    0s
H   74    80                    4.609734e+07    0.00000   100%   4.4    0s
H   95    96                    4.547300e+07    0.00000   100%   4.0    0s
H   95    92                    4.508616e+07    0.00000   100%   4.5    0s
H  225   185                    4.417744e+07    0.00000   100%   9.0    0s
H 1133   685                    4.384776e+07    0.00000   100%   7.6    0s
H 1751  1035                    4.377030e+07 72962.7030   100%   9.1    0s
H 1822  1009                    4.319730e+07 72962.7030   100%   9.2    0s
H 1833   975                    4.300943e+07 72962.7030   100%   9.4    0s
H 1839   930                    3.990038e+07 72962.7030   100%   9.4    0s
*25964 10781              67    3.984857e+07 4212972.21  89.4%   8.7    1s
*35680 14070              68    3.982077e+07 5560618.89  86.0%   8.6    2s
H42025 15081                    3.981987e+07 6287108.82  84.2%   8.5    3s
H42030 14330                    3.980848e+07 6287108.82  84.2%   8.5    3s
H42035 13616                    3.946492e+07 6287108.82  84.1%   8.5    3s
 42081 13647 2.8799e+07   64   60 3.9465e+07 6287108.82  84.1%   8.5    5s
 201173 22619     cutoff   69      3.9465e+07 2.8284e+07  28.3%   9.9   10s

Cutting planes:
  Implied bound: 21
  MIR: 11
  Flow cover: 26
  RLT: 8
  Relax-and-lift: 4

Explored 263854 nodes (2591461 simplex iterations) in 11.57 seconds (16.07 work units)
Thread count was 16 (of 16 available processors)

Solution count 10: 3.94649e+07 3.98085e+07 3.98199e+07 ... 4.38478e+07

Optimal solution found (tolerance 1.00e-04)
Best objective 3.946492500000e+07, best bound 3.946492500000e+07, gap 0.0000%
